seed= 2052018 ;
N= 630 ;
M= 3 ;
F= 3 ;
K= 8 ;
T= 114 ;

p=[ 4 4 4 4 4 4 4 4 4 4 4 4 4 4 4 4 4 4 4 4 4 4 4 4 4 4 4 4 4 4 4 4 4 4 4 4 4 4 4 4 4 4 4 4 4 4 4 4 4 4 4 4 4 4 4 4 4 4 4 4 4 4 4 4 4 4 4 4 4 4 4 4 4 4 4 4 4 4 4 4 4 4 4 4 4 4 4 4 4 4 4 4 4 4 4 4 4 4 4 4 4 4 4 4 4 4 4 4 4 4 4 4 4 4 4 4 4 4 4 4 4 4 4 4 4 4 4 4 4 4 4 4 4 4 4 4 4 4 4 4 4 4 4 4 4 4 4 4 4 4 4 4 4 4 4 4 4 4 4 4 4 4 4 4 4 4 4 4 4 4 4 4 4 4 4 4 4 4 4 4 4 4 4 4 4 4 4 4 4 4 4 4 4 4 4 4 4 4 4 4 4 4 4 4 4 4 4 4 4 4 4 4 4 4 4 4 4 4 4 4 4 4 4 4 4 4 4 4 4 4 4 4 4 4 4 4 4 4 4 4 4 4 4 4 4 4 4 4 4 4 4 4 4 4 4 4 4 4 4 4 4 4 4 4 4 4 4 4 4 4 4 4 4 4 4 4 4 4 4 4 4 4 4 4 4 4 4 4 4 4 4 4 4 4 4 4 4 4 4 4 4 4 4 4 4 4 4 4 4 4 4 4 4 4 4 4 4 4 4 4 4 4 4 4 4 4 4 4 4 4 4 4 4 4 4 4 4 4 4 4 4 4 4 4 4 4 4 4 4 4 4 4 4 4 4 4 4 4 4 4 4 4 4 4 4 4 4 4 4 4 4 4 4 4 4 4 4 4 4 4 4 4 4 4 4 4 4 4 4 4 4 4 4 4 4 4 4 4 4 4 4 4 4 4 4 4 4 4 4 4 4 4 4 4 4 4 4 4 4 4 2 2 2 2 2 2 2 2 2 2 2 2 2 2 2 2 2 2 2 2 2 2 2 2 2 2 2 2 2 2 2 2 2 2 2 2 2 2 2 2 2 2 2 2 2 2 2 2 2 2 2 2 2 2 2 2 2 2 2 2 2 2 2 2 2 2 2 2 2 2 2 2 2 2 2 2 2 2 2 2 2 2 2 2 2 2 2 2 2 2 2 2 2 2 2 2 2 2 2 2 2 2 2 2 2 2 2 2 2 2 2 2 2 2 2 2 2 2 2 2 2 2 2 2 2 2 2 2 2 2 2 2 2 2 2 2 2 2 2 2 2 2 2 2 2 2 2 2 2 2 2 2 2 2 2 2 2 2 2 2 2 2 2 2 2 2 2 2 2 2 2 2 2 2 2 2 2 2 2 2 2 2 2 2 2 2 2 2 2 2 2 2 2 2 2 2 2 2 2 2 2 2 2 2 2 2 2 2 2 2 ];
r=[ 0 0 0 0 0 0 0 0 0 0 0 0 0 0 0 0 0 0 0 0 0 0 0 0 0 0 0 0 0 0 0 0 0 0 0 0 0 0 0 0 0 0 0 0 0 0 0 0 0 0 0 0 0 0 0 0 0 0 0 0 0 0 0 0 0 0 0 0 0 0 0 0 0 0 0 0 0 0 0 0 0 0 0 0 0 0 0 0 0 0 0 0 0 0 0 0 0 0 0 0 0 0 0 0 0 0 0 0 0 0 0 0 0 0 0 0 0 0 0 0 0 0 0 0 0 0 0 0 0 0 0 0 0 0 0 0 0 0 0 0 0 0 0 0 0 0 0 0 0 0 0 0 0 0 0 0 0 0 0 0 0 0 0 0 0 0 0 0 0 0 0 0 0 0 0 0 0 0 0 0 0 0 0 0 0 0 0 0 0 0 0 0 0 0 0 0 0 0 0 0 0 0 0 0 0 0 0 0 0 0 0 0 0 0 0 0 0 0 0 0 0 0 0 0 0 0 0 0 0 0 0 0 0 0 0 0 0 0 0 0 0 0 0 0 0 0 0 0 0 0 0 0 0 0 0 0 0 0 0 0 0 0 0 0 0 0 0 0 0 0 0 0 0 0 0 0 0 0 0 0 0 0 0 0 0 0 0 0 0 0 0 0 0 0 0 0 0 0 0 0 0 0 0 0 0 0 0 0 0 0 0 0 0 0 0 0 0 0 0 0 0 0 0 0 0 0 0 0 0 0 0 0 0 0 0 0 0 0 0 0 0 0 0 0 0 0 0 0 0 0 0 0 0 0 0 0 0 0 0 0 0 0 0 0 0 0 0 0 0 0 0 0 0 0 0 0 0 0 0 0 0 0 0 0 0 0 0 0 0 0 0 0 0 0 0 0 0 0 0 0 0 0 0 0 0 0 0 0 0 0 0 0 0 0 0 0 0 0 0 0 0 0 0 0 0 0 0 0 0 0 0 0 0 0 0 0 0 0 0 0 0 0 0 0 0 0 0 0 0 0 0 0 0 0 0 0 0 0 0 0 0 0 0 0 0 0 0 0 0 0 0 0 0 0 0 0 0 0 0 0 0 0 0 0 0 0 0 0 0 0 0 0 0 0 0 0 0 0 0 0 0 0 0 0 0 0 0 0 0 0 0 0 0 0 0 0 0 0 0 0 0 0 0 0 0 0 0 0 0 0 0 0 0 0 0 0 0 0 0 0 0 0 0 0 0 0 0 0 0 0 0 0 0 0 0 0 0 0 0 0 0 0 0 0 0 0 0 0 0 0 0 0 0 0 0 0 0 0 0 0 0 0 0 0 0 0 0 0 0 0 0 0 0 0 0 0 0 0 0 0 0 0 0 0 0 0 0 0 0 0 0 0 0 0 0 0 0 0 0 0 0 0 0 0 0 0 0 0 0 0 ];
d=[ 38 111 102 40 86 62 119 2 98 100 58 26 58 25 1 77 118 113 78 3 28 41 7 6 74 107 20 88 49 61 85 100 4 38 77 90 114 57 101 59 24 76 6 22 105 82 86 73 19 33 8 21 81 21 3 25 28 47 19 43 64 107 52 39 65 3 33 11 68 58 106 101 109 18 87 4 40 41 23 15 89 0 50 12 26 47 99 119 37 130 102 56 120 100 31 81 111 27 73 77 17 117 60 78 83 49 112 88 104 91 36 88 127 72 52 62 44 115 95 11 35 55 25 87 99 71 90 52 77 76 22 54 119 74 103 117 86 112 74 42 91 11 6 126 77 63 78 10 66 42 108 37 106 71 85 77 39 36 18 130 20 40 14 85 113 18 125 103 108 128 111 15 79 89 91 83 36 100 9 40 72 86 100 22 16 40 1 49 123 31 82 74 6 118 7 98 23 84 100 30 59 7 121 38 128 70 105 59 15 59 40 56 126 29 121 68 47 80 73 11 56 5 70 93 25 66 4 74 85 28 19 12 30 100 11 127 80 12 43 4 10 36 51 47 13 67 7 101 66 22 85 119 52 56 18 81 81 17 61 72 92 86 55 80 61 51 6 51 97 121 114 20 65 40 7 80 92 110 0 125 58 78 105 118 17 6 111 80 28 90 51 72 115 115 130 115 45 48 48 88 122 60 80 26 45 66 118 111 15 92 102 62 53 117 86 30 35 119 119 117 36 121 61 2 110 86 122 47 56 0 131 108 15 102 119 122 29 58 118 109 10 24 96 118 69 85 59 62 72 45 64 36 92 130 63 7 118 19 118 90 20 126 98 58 21 5 126 60 109 77 118 29 26 34 14 48 73 48 76 39 50 86 46 62 68 86 77 114 126 18 127 75 77 70 42 39 30 79 114 109 101 33 51 71 93 103 36 124 82 22 6 34 3 25 19 6 116 108 12 71 9 72 39 83 85 20 69 97 88 116 42 20 33 20 92 91 30 93 95 103 126 1 96 40 82 94 53 92 77 64 19 6 54 52 60 108 22 17 41 102 23 90 85 93 18 18 9 25 94 18 42 55 59 3 18 64 24 14 99 32 2 74 38 128 2 46 113 68 75 16 65 102 109 127 78 81 115 49 78 94 38 106 73 38 12 59 52 62 47 48 129 51 27 107 57 36 75 90 43 58 88 57 70 127 76 38 26 18 41 63 31 1 59 71 5 56 34 117 102 111 18 80 96 60 8 82 48 38 80 9 68 59 85 32 62 31 131 11 127 54 22 83 49 98 4 43 68 31 91 110 85 34 57 46 35 83 50 35 0 98 105 70 66 101 43 46 35 9 38 122 124 92 4 89 127 58 70 33 80 69 37 85 100 71 32 95 98 0 104 18 116 61 90 29 124 98 17 122 64 45 38 0 113 117 82 73 113 31 39 5 ];
s=[ 1 1 1 1 1 1 1 1 1 1 1 1 1 1 1 1 1 1 1 1 1 1 1 1 1 1 1 1 1 1 1 1 1 1 1 1 1 1 1 1 1 1 1 1 1 1 1 1 1 1 1 1 1 1 1 1 1 1 1 1 1 1 1 1 1 1 1 1 1 1 1 1 1 1 1 1 1 1 1 1 1 1 1 1 1 1 1 1 1 1 1 1 1 1 1 1 1 1 1 1 1 1 1 1 1 1 1 1 1 1 1 1 1 1 1 1 1 1 1 1 1 1 1 1 1 1 1 1 1 1 1 1 1 1 1 1 1 1 1 1 1 1 1 1 1 1 1 1 1 1 1 1 1 1 1 1 1 1 1 1 1 1 1 1 1 1 1 1 1 1 1 1 1 1 1 1 1 1 1 1 1 1 1 1 1 1 1 1 1 1 1 1 1 1 1 1 1 1 1 1 1 1 1 1 1 1 1 1 1 1 1 1 1 1 1 1 1 1 1 1 1 1 1 1 1 1 1 1 1 1 1 1 1 1 1 1 1 1 1 1 1 1 1 1 1 1 1 1 1 1 1 1 1 1 1 1 1 1 1 1 1 1 1 1 1 1 1 1 1 1 1 1 1 1 1 1 1 1 1 1 1 1 1 1 1 1 1 1 1 1 1 1 1 1 1 1 1 1 1 1 1 1 1 1 1 1 1 1 1 1 1 1 1 1 1 1 1 1 1 1 1 1 1 1 1 1 1 1 1 1 1 1 1 1 1 1 1 1 1 1 1 1 1 1 1 1 1 1 1 1 1 1 1 1 1 1 1 1 1 1 1 1 1 1 1 1 1 1 1 1 1 1 1 1 1 1 1 1 1 1 1 1 1 1 1 1 1 1 1 1 1 1 1 1 1 1 1 1 1 1 1 1 1 1 1 1 1 1 1 1 1 1 1 1 1 1 1 1 1 1 1 1 1 1 1 1 1 1 1 1 1 1 1 1 1 1 1 1 1 1 1 1 1 1 1 1 1 1 1 1 1 1 1 1 1 1 1 1 1 1 1 1 1 1 1 1 1 1 1 1 1 1 1 1 1 1 1 1 1 1 1 1 1 1 1 1 1 1 1 1 1 1 1 1 1 1 1 1 1 1 1 1 1 1 1 1 1 1 1 1 1 1 1 1 1 1 1 1 1 1 1 1 1 1 1 1 1 1 1 1 1 1 1 1 1 1 1 1 1 1 1 1 1 1 1 1 1 1 1 1 1 1 1 1 1 1 1 1 1 1 1 1 1 1 1 1 1 1 1 1 1 1 1 1 1 1 1 1 1 1 1 1 1 1 1 1 1 1 1 1 1 1 1 1 1 1 1 1 1 1 1 1 1 1 1 1 1 1 1 1 1 1 1 1 1 1 1 1 1 1 1 1 1 1 1 1 1 1 1 1 ];
w=[ 3 2 3 3 4 3 5 4 4 3 5 4 1 2 1 1 3 1 3 1 1 1 1 5 4 1 1 3 2 4 1 1 3 2 4 3 3 3 5 2 5 5 5 3 3 2 2 4 5 3 4 4 4 5 3 4 1 1 5 1 2 2 2 4 4 3 3 2 1 1 1 4 2 1 2 2 5 5 3 5 5 3 1 2 4 2 1 4 5 5 1 3 4 1 2 2 2 3 4 5 5 2 1 3 4 4 3 2 1 4 5 2 4 5 1 2 4 3 3 4 2 5 5 4 3 3 5 1 3 2 3 2 1 1 1 2 5 3 3 2 4 1 2 3 1 3 4 5 3 3 5 4 3 3 1 1 2 3 2 4 4 4 5 3 3 1 4 4 4 3 2 1 1 5 4 3 2 5 4 5 4 1 5 2 3 2 4 1 3 4 1 5 4 5 5 3 3 2 4 1 4 4 2 5 2 4 4 2 2 5 2 3 5 1 2 1 3 3 2 5 3 2 3 3 1 2 1 1 3 5 4 4 2 3 3 1 3 3 5 4 2 3 1 1 4 4 5 3 2 5 1 5 3 4 1 2 3 5 5 2 2 1 4 4 5 1 4 4 5 5 1 2 3 2 2 3 3 5 4 3 1 5 1 1 5 3 5 4 5 1 1 4 3 1 2 5 5 1 2 5 1 4 3 2 2 4 5 3 1 4 4 2 2 2 5 2 2 5 3 1 5 3 4 3 1 1 5 5 3 2 1 4 2 3 2 1 1 5 5 3 1 5 2 4 4 4 2 4 2 3 5 3 4 5 3 3 3 3 1 5 5 2 2 5 2 5 2 5 2 3 5 3 2 1 5 2 1 3 3 2 2 5 2 4 4 4 5 1 3 4 1 2 1 5 1 5 1 3 5 3 4 1 4 1 2 5 1 2 1 3 5 1 4 3 3 2 5 4 3 1 4 2 5 5 2 4 2 2 4 5 4 3 1 3 4 5 5 2 4 2 1 2 2 2 1 3 5 1 1 1 2 3 3 1 3 3 1 3 3 3 2 4 3 1 5 3 1 3 3 1 2 4 2 4 5 1 4 4 3 3 5 1 3 2 3 5 4 3 3 4 1 5 3 2 4 5 3 4 5 1 4 4 3 2 2 5 3 1 2 3 2 2 1 3 1 5 2 1 3 1 3 2 5 4 1 4 4 3 2 1 1 1 1 4 3 2 4 5 3 4 4 2 4 5 3 2 3 1 1 5 1 3 5 5 2 3 4 1 5 4 5 1 5 4 1 4 4 5 2 4 2 4 3 3 2 4 3 2 2 2 5 3 5 5 5 5 1 2 3 1 3 5 2 3 3 5 5 5 4 1 2 2 3 2 5 1 4 3 2 5 4 5 1 4 2 2 1 3 1 5 2 5 4 1 1 2 5 2 1 2 ];
f=[ 1 1 1 1 1 1 1 1 1 1 1 1 1 1 1 1 1 1 1 1 1 1 1 1 1 1 1 1 1 1 1 1 1 1 1 1 1 1 1 1 1 1 1 1 1 1 1 1 1 1 1 1 1 1 1 1 1 1 1 1 1 1 1 1 1 1 1 1 1 1 1 1 1 1 1 1 1 1 1 1 1 1 1 1 1 1 1 1 1 1 1 1 1 1 1 1 1 1 1 1 1 1 1 1 1 1 1 1 1 1 1 1 1 1 1 1 1 1 1 1 1 1 1 1 1 1 1 1 1 1 1 1 1 1 1 1 1 1 1 1 1 1 1 1 1 1 1 1 1 1 1 1 1 1 1 1 1 1 1 1 1 1 1 1 1 1 1 1 1 1 1 1 1 1 1 1 1 1 1 1 1 1 1 1 1 1 1 1 1 1 1 1 1 1 1 1 1 1 1 1 1 1 1 1 1 1 1 1 1 1 2 2 2 2 2 2 2 2 2 2 2 2 2 2 2 2 2 2 2 2 2 2 2 2 2 2 2 2 2 2 2 2 2 2 2 2 2 2 2 2 2 2 2 2 2 2 2 2 2 2 2 2 2 2 2 2 2 2 2 2 2 2 2 2 2 2 2 2 2 2 2 2 2 2 2 2 2 2 2 2 2 2 2 2 2 2 2 2 2 2 2 2 2 2 2 2 2 2 2 2 2 2 2 2 2 2 2 2 2 2 2 2 2 2 2 2 2 2 2 2 2 2 2 2 2 2 2 2 2 2 2 2 2 2 2 2 2 2 2 2 2 2 2 2 2 2 2 2 2 2 2 2 2 2 2 2 2 2 2 2 2 2 2 2 2 2 2 2 2 2 2 2 2 2 2 2 2 2 2 2 2 2 2 2 2 2 2 2 2 2 2 2 2 2 2 2 2 2 2 2 2 2 2 2 2 2 2 2 2 2 3 3 3 3 3 3 3 3 3 3 3 3 3 3 3 3 3 3 3 3 3 3 3 3 3 3 3 3 3 3 3 3 3 3 3 3 3 3 3 3 3 3 3 3 3 3 3 3 3 3 3 3 3 3 3 3 3 3 3 3 3 3 3 3 3 3 3 3 3 3 3 3 3 3 3 3 3 3 3 3 3 3 3 3 3 3 3 3 3 3 3 3 3 3 3 3 3 3 3 3 3 3 3 3 3 3 3 3 3 3 3 3 3 3 3 3 3 3 3 3 3 3 3 3 3 3 3 3 3 3 3 3 3 3 3 3 3 3 3 3 3 3 3 3 3 3 3 3 3 3 3 3 3 3 3 3 3 3 3 3 3 3 3 3 3 3 3 3 3 3 3 3 3 3 3 3 3 3 3 3 3 3 3 3 3 3 3 3 3 3 3 3 3 3 3 3 3 3 3 3 3 3 3 3 3 3 3 3 3 3 ];

e1=[ 10 10 10 10 10 10 10 10 10 10 10 10 10 10 10 10 10 10 10 10 10 10 10 10 10 10 10 10 10 10 10 10 10 10 10 10 10 10 10 10 10 10 10 10 10 10 10 10 10 10 10 10 10 10 10 10 10 8 8 8 8 8 8 8 8 8 8 8 8 8 8 8 8 8 8 8 8 8 8 8 8 8 8 8 8 8 8 8 8 8 8 8 8 8 8 8 8 8 8 8 8 8 8 8 8 8 8 8 8 8 8 8 8 8 ];
e2=[ 10 10 10 10 10 10 10 10 10 10 10 10 10 10 10 10 10 10 10 10 10 10 10 10 10 10 10 10 10 10 10 10 10 10 10 10 10 10 9 9 9 9 9 9 9 9 9 9 9 9 9 9 9 9 9 9 9 8 8 8 8 8 8 8 8 8 8 8 8 8 8 8 8 8 8 8 8 8 8 8 8 8 8 8 8 8 8 8 8 8 8 8 8 8 8 9 9 9 9 9 9 9 9 9 9 9 9 9 9 9 9 9 9 9 ];